Comps = {frontend0, frontend1, backend0, backend1, database0, database1};
mustComps = {frontend0, frontend1};
Flavs = {tiny, medium, large};
Nodes = {n1, n2, n3};
CRes = {CPU, RAM, storage, bwIn, bwOut};
NRes = {ssl, fwall, encr, avail, latency};
Flav = [{medium, large}, {medium, large}, {tiny, medium, large}, {tiny, medium, large}, {large}, {large}];
Uses = array2d(CompFlavs, CompFlavs, [
	0,0,0,0,1,0,0,0,0,0,0,0,
	0,0,0,0,1,0,0,0,0,0,0,0,
	0,0,0,0,1,0,0,0,0,0,0,0,
	0,0,0,0,1,0,0,0,0,0,0,0,
	0,0,0,0,0,0,0,0,0,0,0,0,
	0,0,0,0,0,0,0,0,0,1,0,0,
	0,0,0,0,0,0,0,0,0,1,0,0,
	0,0,0,0,0,0,0,0,0,0,0,0,
	0,0,0,0,0,0,0,0,0,1,0,0,
	0,0,0,0,0,0,0,0,0,1,0,0,
	0,0,0,0,0,0,0,0,0,0,0,0,
	0,0,0,0,0,0,0,0,0,0,0,0,
]);
mayUse = array2d(Comps, CompFlavs, [
	0,0,0,0,0,0,0,0,0,0,0,0,
	0,0,0,0,0,0,0,0,0,0,0,0,
	1,1,1,1,0,0,0,0,0,0,0,0,
	0,0,0,0,0,1,1,0,1,1,0,0,
	0,0,0,0,0,0,0,0,0,0,0,0,
	0,0,0,0,0,0,0,0,0,0,0,0,
]);
MIN_RBOUNDS = 0;
MAX_RBOUNDS = 1000000;

worstBounds = [0, 0, 0, 0, 0, 0, 0, 0, 0, MAX_RBOUNDS];
bestBounds = [MAX_RBOUNDS - i | i in worstBounds];

comReq = array2d(CompFlavs, Res, [
  2, 291, 208, 671, 385, 1, 1, 1, 97, MAX_RBOUNDS,
  2, 257, 256, 855, 868, 1, 1, 0, 96, MAX_RBOUNDS,
  2, 226, 373, 389, 543, 1, 1, 1, 95, MAX_RBOUNDS,
  4, 395, 375, 878, 452, 1, 1, 1, 95, MAX_RBOUNDS,
  4, 425, 214, 383, 714, 0, 1, 1, 96, MAX_RBOUNDS,
  2, 491, 293, 808, 505, 0, 1, 1, 97, MAX_RBOUNDS,
  2, 338, 260, 517, 215, 1, 1, 1, 97, MAX_RBOUNDS,
  2, 337, 257, 254, 425, 0, 0, 1, 96, MAX_RBOUNDS,
  4, 373, 409, 245, 387, 1, 0, 1, 97, MAX_RBOUNDS,
  2, 479, 500, 452, 938, 1, 1, 1, 97, MAX_RBOUNDS,
  2, 498, 269, 817, 471, 1, 1, 1, 96, MAX_RBOUNDS,
  4, 452, 255, 613, 999, 1, 1, 1, 96, MAX_RBOUNDS,
]);

nodeCap = array2d(Nodes0, Res, [bestBounds[r] | r in Res] ++ [
  32, 95444, 931125, 20381, 24853, 0, 0, 1, 98, 0,
  16, 100903, 168688, 13350, 18484, 1, 1, 1, 98, 0,
  8, 110238, 968418, 22668, 15603, 1, 1, 1, 99, 0,
]);

cost = array2d(Nodes0, Res, [
  0, 0, 0, 0, 0, 0, 0, 0, 0, 0, % no node
  15, 8, 24, 0, 0, 0, 0, 0, 0, 0,
  13, 5, 22, 0, 0, 0, 0, 0, 0, 0,
  12, 9, 18, 0, 0, 0, 0, 0, 0, 0,
]);

carb = array2d(Nodes0, Res, [
  0, 0, 0, 0, 0, 0, 0, 0, 0, 0, % no node
  28, 8, 5, 0, 0, 0, 0, 0, 0, 0,
  25, 28, 41, 0, 0, 0, 0, 0, 0, 0,
  26, 24, 24, 0, 0, 0, 0, 0, 0, 0,
]);

costBudget = 31845;
carbBudget = 49231;

depReq = array4d(Comps, Flavs, Comps, Res, [
  if c1 = frontend0 /\ c2 = backend0 /\ r = N(avail) then
    96
  elseif c1 = frontend1 /\ c2 = backend1 /\ r = N(avail) then
    97
  elseif c1 = frontend1 /\ c2 = backend0 /\ r = N(avail) then
    97
  else
    worstBounds[r]
  endif | c1 in Comps, i in Flavs, c2 in Comps, r in Res]);

linkCap = array3d(Nodes0, Nodes0, Res, [
  if ni = 0 \/ nj = 0 then
    bestBounds[r]
  elseif ni = nj /\ r = N(avail) then
    nodeCap[ni,r]
  elseif {ni, nj} = {n1, n3} /\ r = N(avail) then
    98
  elseif {ni, nj} = {n1, n2} /\ r = N(avail) then
    99
  elseif {ni, nj} = {n2, n3} /\ r = N(avail) then
    98
  else
    worstBounds[r]
  endif | ni in Nodes0, nj in Nodes0, r in Res]);

imp = array2d(Comps, Flavs, [
  1, 2, 8,
  5, 7, 9,
  2, 6, 8,
  4, 8, 9,
  1, 3, 5,
  2, 5, 9,
]);

